VACCINE = Vaccine(1..5);

m = 20;
age = [BABY, CHILD, YOUTH, ADULT, AGED, YOUTH, BABY, ADULT, ADULT, ANCIENT, BABY, CHILD, YOUTH, ADULT, AGED, YOUTH, BABY, ADULT, ADULT, ANCIENT];
gender = [MALE, FEMALE, OTHER, MALE, FEMALE, MALE, FEMALE, MALE, MALE, FEMALE, OTHER, OTHER, MALE, FEMALE, OTHER, MALE, FEMALE, MALE, FEMALE, MALE];
health = [GOOD, POOR, GOOD, COMPROMISED, GOOD, GOOD, POOR, GOOD, COMPROMISED, GOOD, GOOD, POOR, POOR, POOR, COMPROMISED, GOOD, GOOD, POOR, POOR, COMPROMISED];
exposure = [AVERAGE, EXTREME, LOW, HIGH, LOW, HIGH, LOW, AVERAGE, EXTREME, LOW, HIGH, AVERAGE, AVERAGE, AVERAGE, AVERAGE, EXTREME, LOW, AVERAGE, EXTREME, LOW];
size = [10, 35, 10, 100, 46, 60, 18, 145, 170, 12, 28, 19, 14, 167, 300, 22, 14, 122, 54, 67];

minsize = 4;
age_group_min = [1,0,1,1,0,0,0];
age_group_max = [2,10,10,10,2,10,10];
max_people_diff = 10;
max_share_vaccines = 3;

health_information = [1,2,5];
exposure_information = [1,2,4,7];

